100 2470
1 2 -1
1 5 1
1 9 -1
1 10 -1
1 11 -1
1 13 -1
1 16 1
1 17 1
1 18 -1
1 20 1
1 21 1
1 22 -1
1 24 1
1 25 -1
1 26 1
1 28 -1
1 30 -1
1 31 1
1 34 -1
1 35 1
1 36 1
1 40 1
1 41 1
1 42 1
1 45 -1
1 47 -1
1 48 -1
1 49 -1
1 51 1
1 52 -1
1 53 -1
1 54 -1
1 57 -1
1 58 -1
1 59 1
1 60 -1
1 62 1
1 63 -1
1 65 1
1 67 1
1 69 1
1 70 -1
1 76 -1
1 78 -1
1 80 -1
1 86 1
1 87 1
1 89 -1
1 91 1
1 93 1
1 94 1
1 95 -1
1 96 1
1 98 -1
1 99 -1
2 3 1
2 4 -1
2 6 1
2 8 -1
2 9 1
2 11 -1
2 12 -1
2 14 1
2 15 -1
2 17 -1
2 19 1
2 21 1
2 22 -1
2 23 1
2 24 -1
2 27 -1
2 28 1
2 29 1
2 33 -1
2 34 -1
2 37 1
2 46 1
2 48 1
2 49 -1
2 50 -1
2 53 -1
2 55 -1
2 56 -1
2 57 -1
2 58 -1
2 59 1
2 61 -1
2 62 1
2 65 -1
2 68 1
2 70 1
2 71 1
2 72 -1
2 73 1
2 75 -1
2 76 -1
2 77 -1
2 82 -1
2 83 -1
2 84 -1
2 88 -1
2 90 -1
2 92 1
2 93 -1
2 94 -1
2 97 -1
2 99 -1
3 5 1
3 7 1
3 8 1
3 9 -1
3 10 1
3 13 1
3 14 -1
3 15 -1
3 16 -1
3 19 -1
3 21 -1
3 23 -1
3 25 1
3 26 1
3 30 -1
3 33 -1
3 34 -1
3 35 1
3 42 -1
3 43 1
3 44 -1
3 47 1
3 48 -1
3 49 1
3 50 -1
3 52 -1
3 53 1
3 55 -1
3 59 -1
3 60 1
3 62 1
3 67 -1
3 68 -1
3 69 1
3 72 1
3 74 -1
3 76 -1
3 77 -1
3 79 -1
3 80 1
3 81 -1
3 82 1
3 84 1
3 86 -1
3 87 1
3 88 1
3 89 1
3 90 1
3 91 1
3 99 -1
4 5 1
4 6 -1
4 7 1
4 8 1
4 9 1
4 10 1
4 11 -1
4 12 1
4 13 -1
4 14 -1
4 15 -1
4 17 -1
4 19 -1
4 22 -1
4 23 -1
4 25 1
4 28 1
4 29 1
4 32 1
4 34 1
4 35 -1
4 36 1
4 37 1
4 38 -1
4 39 1
4 41 -1
4 44 1
4 46 -1
4 47 -1
4 48 -1
4 50 1
4 51 1
4 52 -1
4 53 1
4 54 -1
4 57 1
4 58 1
4 60 -1
4 61 -1
4 62 1
4 63 1
4 64 -1
4 65 -1
4 68 1
4 73 -1
4 74 1
4 76 1
4 77 -1
4 83 1
4 84 -1
4 89 -1
4 90 1
4 94 1
4 95 1
4 97 1
4 98 1
4 100 -1
5 6 -1
5 7 1
5 12 -1
5 14 -1
5 16 -1
5 17 -1
5 19 1
5 21 -1
5 22 1
5 24 -1
5 25 1
5 26 -1
5 28 1
5 31 1
5 34 -1
5 36 -1
5 37 1
5 41 1
5 42 -1
5 46 1
5 48 -1
5 50 1
5 52 1
5 53 -1
5 54 -1
5 55 1
5 56 -1
5 58 -1
5 59 -1
5 61 1
5 62 -1
5 63 -1
5 64 1
5 66 1
5 67 1
5 69 1
5 70 1
5 71 -1
5 74 1
5 75 1
5 76 -1
5 77 1
5 78 1
5 85 1
5 87 -1
5 88 1
5 89 1
5 90 1
5 94 1
5 95 1
5 96 -1
5 97 1
5 99 -1
6 7 -1
6 8 -1
6 9 -1
6 12 1
6 15 1
6 16 -1
6 19 1
6 20 -1
6 28 1
6 29 -1
6 30 1
6 31 -1
6 33 -1
6 34 -1
6 35 -1
6 39 -1
6 40 1
6 41 1
6 43 -1
6 45 -1
6 46 -1
6 47 -1
6 50 -1
6 51 -1
6 54 1
6 56 1
6 58 1
6 59 -1
6 64 -1
6 67 -1
6 69 1
6 71 1
6 73 1
6 74 -1
6 76 1
6 80 1
6 81 -1
6 82 -1
6 84 -1
6 85 -1
6 86 1
6 87 -1
6 88 -1
6 89 1
6 93 -1
6 94 -1
6 95 1
6 96 -1
6 98 -1
7 8 -1
7 9 -1
7 10 -1
7 12 1
7 15 -1
7 20 1
7 21 -1
7 24 1
7 28 1
7 29 1
7 30 -1
7 32 -1
7 33 1
7 34 1
7 35 1
7 36 1
7 37 1
7 38 1
7 43 -1
7 45 -1
7 47 1
7 48 -1
7 49 1
7 50 -1
7 51 1
7 54 1
7 56 -1
7 57 1
7 58 -1
7 61 -1
7 65 1
7 67 -1
7 68 -1
7 71 -1
7 73 1
7 74 -1
7 76 1
7 77 -1
7 78 1
7 80 1
7 83 -1
7 84 1
7 85 -1
7 88 -1
7 92 -1
7 95 -1
7 96 -1
7 97 1
7 98 1
7 99 1
7 100 1
8 9 1
8 11 -1
8 12 -1
8 13 1
8 14 1
8 15 1
8 16 1
8 17 -1
8 18 1
8 21 1
8 22 -1
8 27 -1
8 28 1
8 29 1
8 32 1
8 37 1
8 38 -1
8 40 1
8 41 -1
8 45 1
8 46 1
8 47 1
8 51 -1
8 53 -1
8 55 1
8 56 1
8 58 -1
8 59 1
8 62 -1
8 66 -1
8 67 -1
8 68 1
8 69 -1
8 70 -1
8 72 1
8 73 1
8 75 1
8 77 -1
8 78 -1
8 79 1
8 82 1
8 84 1
8 85 -1
8 89 1
8 91 1
8 94 1
8 97 1
8 98 1
8 99 1
8 100 -1
9 11 1
9 13 1
9 16 -1
9 17 -1
9 18 -1
9 19 -1
9 21 1
9 23 -1
9 24 1
9 25 -1
9 27 1
9 28 -1
9 31 1
9 33 -1
9 34 1
9 35 -1
9 36 1
9 43 -1
9 45 1
9 46 -1
9 50 -1
9 51 -1
9 52 1
9 53 -1
9 54 1
9 55 1
9 56 -1
9 57 1
9 61 -1
9 62 1
9 64 1
9 67 -1
9 68 -1
9 71 1
9 72 1
9 73 -1
9 76 -1
9 77 -1
9 79 1
9 80 1
9 81 -1
9 82 1
9 83 -1
9 84 -1
9 85 1
9 86 -1
9 87 1
9 89 -1
9 92 -1
9 93 1
9 94 1
9 98 1
10 12 1
10 14 1
10 20 -1
10 21 1
10 24 1
10 27 -1
10 29 -1
10 33 1
10 34 1
10 37 1
10 40 1
10 41 1
10 42 1
10 43 -1
10 44 -1
10 46 1
10 47 1
10 49 1
10 52 1
10 53 1
10 54 -1
10 55 1
10 59 -1
10 61 -1
10 62 1
10 63 1
10 64 -1
10 67 1
10 69 -1
10 70 1
10 76 1
10 78 -1
10 79 -1
10 80 1
10 83 -1
10 84 1
10 85 -1
10 86 -1
10 88 1
10 89 1
10 90 -1
10 93 1
10 96 1
10 97 -1
10 100 1
11 13 1
11 14 -1
11 15 -1
11 17 1
11 21 -1
11 24 1
11 29 1
11 30 1
11 35 -1
11 39 -1
11 40 1
11 42 1
11 44 -1
11 46 1
11 51 -1
11 53 1
11 55 -1
11 56 -1
11 57 1
11 58 1
11 61 -1
11 63 1
11 64 -1
11 65 1
11 67 1
11 72 -1
11 77 1
11 78 1
11 81 -1
11 82 1
11 85 -1
11 89 1
11 92 -1
11 94 -1
11 95 -1
11 98 1
11 100 1
12 13 1
12 15 -1
12 16 -1
12 17 1
12 18 1
12 19 1
12 20 -1
12 23 1
12 24 -1
12 25 -1
12 26 -1
12 27 1
12 29 -1
12 30 -1
12 31 -1
12 34 1
12 38 1
12 46 1
12 47 1
12 50 1
12 52 -1
12 54 -1
12 57 -1
12 58 -1
12 59 -1
12 60 -1
12 62 -1
12 64 1
12 65 1
12 66 -1
12 68 -1
12 71 1
12 72 1
12 73 -1
12 75 -1
12 80 1
12 81 -1
12 82 1
12 83 -1
12 84 1
12 88 1
12 89 -1
12 90 -1
12 92 1
12 93 1
12 95 -1
12 97 -1
12 98 -1
13 14 -1
13 16 1
13 17 1
13 21 -1
13 28 1
13 29 1
13 32 1
13 33 -1
13 36 -1
13 38 -1
13 39 1
13 40 -1
13 42 -1
13 44 1
13 45 1
13 46 1
13 47 -1
13 49 -1
13 50 1
13 51 1
13 55 -1
13 56 -1
13 57 1
13 58 -1
13 62 -1
13 64 1
13 66 1
13 71 -1
13 72 -1
13 74 -1
13 76 1
13 79 1
13 91 -1
13 93 -1
13 94 -1
13 96 -1
13 97 -1
13 100 -1
14 17 1
14 18 -1
14 20 -1
14 21 -1
14 22 -1
14 24 1
14 25 -1
14 26 1
14 31 1
14 32 -1
14 36 1
14 39 1
14 40 -1
14 42 1
14 43 1
14 44 -1
14 46 1
14 49 -1
14 50 -1
14 52 1
14 53 1
14 56 1
14 58 1
14 59 1
14 61 1
14 64 -1
14 65 -1
14 67 1
14 68 1
14 71 -1
14 74 -1
14 75 1
14 76 -1
14 79 1
14 84 -1
14 85 1
14 89 -1
14 90 1
14 91 -1
14 92 1
14 93 -1
14 99 1
15 17 1
15 18 -1
15 19 -1
15 21 -1
15 23 -1
15 29 1
15 30 1
15 32 -1
15 35 -1
15 36 1
15 38 1
15 40 1
15 42 -1
15 46 -1
15 48 1
15 50 1
15 51 -1
15 52 1
15 54 -1
15 56 1
15 60 1
15 61 -1
15 62 1
15 66 1
15 67 -1
15 68 -1
15 72 -1
15 78 1
15 80 1
15 81 -1
15 82 1
15 83 -1
15 84 1
15 86 -1
15 87 1
15 88 -1
15 90 -1
15 96 -1
15 97 -1
15 99 1
16 19 -1
16 20 1
16 25 -1
16 26 1
16 29 1
16 30 -1
16 31 1
16 32 1
16 35 1
16 36 -1
16 37 1
16 39 -1
16 40 1
16 42 -1
16 44 -1
16 46 -1
16 47 -1
16 50 -1
16 52 1
16 56 -1
16 59 1
16 65 -1
16 66 -1
16 67 1
16 69 1
16 70 1
16 71 -1
16 74 1
16 75 -1
16 79 1
16 80 1
16 82 1
16 84 -1
16 85 1
16 87 1
16 89 1
16 92 1
17 21 -1
17 23 1
17 24 1
17 25 -1
17 26 -1
17 28 1
17 31 1
17 32 1
17 37 1
17 38 -1
17 40 1
17 41 -1
17 42 -1
17 44 -1
17 47 -1
17 49 1
17 50 1
17 51 -1
17 52 1
17 54 -1
17 56 -1
17 59 -1
17 60 1
17 62 -1
17 63 -1
17 64 1
17 67 -1
17 68 -1
17 69 1
17 70 -1
17 72 1
17 76 1
17 78 1
17 79 -1
17 80 1
17 83 1
17 84 1
17 88 -1
17 91 -1
17 94 1
17 95 -1
17 96 -1
17 98 -1
18 19 1
18 20 -1
18 23 1
18 27 -1
18 28 1
18 33 -1
18 35 -1
18 36 1
18 37 -1
18 40 -1
18 44 -1
18 46 1
18 49 1
18 50 1
18 51 1
18 52 -1
18 53 1
18 54 -1
18 55 -1
18 64 -1
18 65 -1
18 66 1
18 67 1
18 68 -1
18 70 -1
18 75 -1
18 77 1
18 78 1
18 79 -1
18 80 -1
18 81 1
18 82 -1
18 84 1
18 85 -1
18 91 -1
18 98 -1
18 100 -1
19 22 1
19 28 1
19 31 1
19 32 -1
19 35 1
19 37 1
19 39 1
19 40 1
19 41 1
19 44 1
19 45 -1
19 46 -1
19 50 1
19 52 -1
19 53 1
19 54 -1
19 56 -1
19 57 1
19 59 1
19 61 -1
19 62 1
19 64 -1
19 69 1
19 72 -1
19 73 -1
19 74 -1
19 77 1
19 78 1
19 82 -1
19 86 1
19 87 -1
19 88 1
19 89 -1
19 90 1
19 91 1
19 93 -1
19 95 -1
19 97 1
20 21 -1
20 22 1
20 29 -1
20 30 1
20 31 -1
20 32 -1
20 33 -1
20 34 1
20 36 1
20 39 1
20 40 1
20 41 -1
20 43 1
20 48 -1
20 49 -1
20 50 1
20 51 1
20 52 -1
20 59 -1
20 60 1
20 62 1
20 65 1
20 67 -1
20 70 -1
20 71 1
20 73 1
20 75 1
20 76 1
20 77 -1
20 79 -1
20 80 1
20 83 1
20 85 1
20 87 -1
20 88 -1
20 92 1
20 94 -1
20 98 -1
20 99 1
20 100 1
21 28 -1
21 31 1
21 32 1
21 34 -1
21 35 -1
21 36 1
21 38 -1
21 39 1
21 42 -1
21 49 1
21 50 -1
21 53 -1
21 54 1
21 56 -1
21 59 1
21 60 -1
21 61 -1
21 68 1
21 71 -1
21 72 -1
21 73 -1
21 74 1
21 76 1
21 78 1
21 83 -1
21 84 1
21 85 1
21 88 1
21 89 1
21 91 1
21 93 -1
21 94 1
21 95 -1
21 98 1
21 100 1
22 23 -1
22 24 -1
22 25 -1
22 29 1
22 31 -1
22 36 -1
22 44 1
22 45 1
22 46 1
22 48 -1
22 49 -1
22 50 1
22 56 -1
22 58 -1
22 63 -1
22 65 1
22 67 1
22 74 -1
22 76 -1
22 77 -1
22 78 1
22 81 -1
22 86 1
22 89 1
22 92 -1
22 93 1
22 97 1
22 98 1
22 99 1
23 24 -1
23 25 1
23 26 -1
23 27 1
23 28 1
23 29 1
23 30 1
23 31 -1
23 36 -1
23 38 1
23 40 1
23 41 -1
23 42 -1
23 43 1
23 44 1
23 46 1
23 47 -1
23 48 -1
23 51 -1
23 53 -1
23 54 -1
23 58 -1
23 59 -1
23 62 -1
23 63 1
23 65 -1
23 69 1
23 71 1
23 72 1
23 73 -1
23 74 1
23 75 -1
23 76 -1
23 77 -1
23 80 -1
23 81 -1
23 83 -1
23 84 -1
23 86 1
23 88 -1
23 89 -1
23 92 1
23 96 -1
23 99 -1
24 26 -1
24 28 -1
24 29 1
24 32 1
24 34 1
24 36 -1
24 37 -1
24 38 1
24 40 -1
24 41 1
24 42 -1
24 45 -1
24 47 1
24 48 -1
24 52 1
24 53 -1
24 55 -1
24 56 -1
24 58 1
24 59 1
24 63 -1
24 66 -1
24 67 -1
24 71 1
24 72 1
24 73 1
24 74 -1
24 75 -1
24 83 -1
24 84 -1
24 85 1
24 86 -1
24 87 1
24 88 1
24 91 -1
24 92 -1
24 94 1
24 98 -1
24 100 1
25 27 -1
25 30 -1
25 32 1
25 36 -1
25 37 1
25 38 1
25 39 -1
25 40 -1
25 41 1
25 42 -1
25 43 -1
25 44 -1
25 45 1
25 49 -1
25 50 1
25 51 1
25 54 1
25 56 1
25 61 -1
25 63 -1
25 65 -1
25 67 -1
25 68 1
25 70 1
25 71 -1
25 73 -1
25 76 1
25 80 -1
25 81 -1
25 82 1
25 85 1
25 88 -1
25 90 -1
25 93 -1
25 95 -1
25 96 -1
25 98 1
25 100 1
26 27 1
26 28 -1
26 29 -1
26 30 -1
26 32 1
26 36 1
26 37 1
26 38 1
26 39 1
26 42 1
26 43 1
26 44 1
26 45 -1
26 47 -1
26 52 -1
26 55 1
26 68 1
26 70 1
26 71 1
26 72 -1
26 76 -1
26 77 1
26 78 1
26 79 1
26 80 -1
26 81 -1
26 82 -1
26 84 -1
26 85 1
26 88 -1
26 89 1
26 94 1
26 96 1
26 97 -1
26 98 1
26 99 1
27 28 -1
27 32 1
27 33 -1
27 36 1
27 38 1
27 39 1
27 40 1
27 43 -1
27 46 -1
27 47 -1
27 48 -1
27 49 -1
27 50 -1
27 51 1
27 53 1
27 54 1
27 55 1
27 56 -1
27 62 1
27 64 -1
27 65 -1
27 66 -1
27 70 1
27 72 1
27 73 -1
27 74 1
27 77 -1
27 80 -1
27 82 1
27 83 -1
27 88 1
27 90 1
27 92 -1
27 93 1
27 94 1
27 97 1
27 99 -1
27 100 -1
28 29 1
28 31 -1
28 32 1
28 33 -1
28 36 1
28 38 1
28 40 -1
28 46 1
28 49 -1
28 50 1
28 54 -1
28 55 1
28 56 -1
28 57 1
28 58 -1
28 60 1
28 62 -1
28 64 1
28 66 -1
28 67 -1
28 68 -1
28 69 1
28 71 -1
28 72 1
28 76 1
28 78 1
28 79 1
28 81 1
28 83 -1
28 95 -1
28 97 1
29 30 -1
29 32 1
29 33 -1
29 34 1
29 37 1
29 38 1
29 41 1
29 43 1
29 45 1
29 51 1
29 52 -1
29 57 1
29 58 -1
29 60 -1
29 61 1
29 62 -1
29 63 1
29 64 -1
29 66 -1
29 67 1
29 68 1
29 71 1
29 72 1
29 73 -1
29 75 1
29 78 -1
29 81 -1
29 83 1
29 85 -1
29 86 1
29 87 -1
29 88 -1
29 89 -1
29 90 1
29 91 1
29 92 -1
29 93 1
29 94 -1
29 95 1
29 96 1
29 100 -1
30 32 1
30 33 -1
30 34 -1
30 36 -1
30 47 1
30 48 1
30 50 -1
30 53 1
30 57 -1
30 58 1
30 59 1
30 61 -1
30 63 1
30 64 1
30 66 -1
30 67 -1
30 68 -1
30 70 1
30 71 1
30 73 1
30 78 1
30 81 1
30 82 1
30 87 1
30 89 -1
30 90 -1
30 91 1
30 94 1
30 97 -1
30 98 -1
30 99 1
30 100 -1
31 32 -1
31 34 -1
31 35 1
31 37 1
31 40 1
31 42 1
31 43 -1
31 47 -1
31 48 1
31 49 -1
31 50 1
31 53 -1
31 57 -1
31 59 -1
31 61 1
31 63 -1
31 64 1
31 67 -1
31 68 -1
31 70 1
31 74 1
31 78 -1
31 79 -1
31 88 -1
31 89 -1
31 91 1
31 93 -1
31 94 1
31 95 1
32 36 -1
32 37 -1
32 38 -1
32 41 1
32 46 -1
32 47 -1
32 50 1
32 53 1
32 57 1
32 58 1
32 59 1
32 60 -1
32 68 -1
32 69 1
32 79 1
32 82 -1
32 83 1
32 86 1
32 93 1
32 94 -1
32 96 1
32 98 -1
33 34 -1
33 36 1
33 38 1
33 39 1
33 42 -1
33 45 1
33 46 -1
33 51 1
33 52 -1
33 56 1
33 57 -1
33 58 -1
33 60 -1
33 61 1
33 63 -1
33 66 -1
33 68 1
33 69 -1
33 71 -1
33 73 -1
33 78 -1
33 79 1
33 80 1
33 82 1
33 84 -1
33 85 -1
33 86 1
33 87 -1
33 88 -1
33 90 1
33 96 -1
33 99 -1
34 35 1
34 37 1
34 38 1
34 39 1
34 41 1
34 42 -1
34 43 1
34 46 -1
34 47 1
34 49 -1
34 51 -1
34 55 1
34 57 -1
34 59 -1
34 60 -1
34 63 -1
34 65 1
34 66 1
34 67 -1
34 71 -1
34 72 1
34 76 1
34 77 1
34 79 -1
34 81 1
34 83 1
34 84 1
34 85 -1
34 87 1
34 88 1
34 90 1
34 93 1
34 94 -1
34 95 -1
34 96 -1
34 100 -1
35 36 1
35 39 1
35 42 1
35 43 1
35 45 1
35 46 -1
35 47 -1
35 49 -1
35 50 -1
35 51 -1
35 58 -1
35 59 -1
35 60 1
35 69 1
35 70 -1
35 72 -1
35 75 1
35 77 -1
35 78 -1
35 82 1
35 83 -1
35 84 1
35 85 -1
35 87 -1
35 89 1
35 90 -1
35 91 1
35 97 1
35 98 -1
36 37 -1
36 38 1
36 42 -1
36 46 1
36 49 1
36 50 1
36 51 -1
36 55 1
36 59 1
36 61 -1
36 63 1
36 65 1
36 69 -1
36 75 1
36 76 1
36 77 -1
36 78 1
36 79 1
36 85 -1
36 87 -1
36 88 1
36 89 -1
36 92 -1
36 93 1
36 94 1
36 96 1
36 97 -1
36 99 1
36 100 1
37 41 -1
37 43 1
37 45 -1
37 47 1
37 49 -1
37 50 1
37 51 1
37 57 -1
37 58 -1
37 59 -1
37 60 1
37 62 -1
37 63 -1
37 65 1
37 68 -1
37 70 -1
37 71 -1
37 72 1
37 74 1
37 75 -1
37 77 -1
37 80 1
37 82 -1
37 83 -1
37 85 -1
37 88 1
37 89 1
37 92 -1
37 96 1
37 97 -1
37 98 -1
38 39 -1
38 40 -1
38 42 -1
38 44 -1
38 45 1
38 49 1
38 50 -1
38 51 1
38 55 -1
38 58 -1
38 59 1
38 61 -1
38 63 1
38 66 -1
38 68 1
38 70 1
38 73 -1
38 76 -1
38 77 -1
38 79 1
38 80 -1
38 81 -1
38 82 1
38 84 1
38 87 1
38 88 -1
38 89 -1
38 91 1
38 94 1
38 95 -1
38 96 1
38 97 1
38 98 1
38 99 1
38 100 -1
39 40 -1
39 43 -1
39 45 -1
39 48 1
39 50 1
39 51 1
39 52 1
39 53 -1
39 54 -1
39 56 1
39 59 1
39 60 1
39 62 -1
39 66 1
39 68 1
39 70 1
39 79 1
39 85 -1
39 86 -1
39 88 -1
39 89 -1
39 90 1
39 92 1
39 94 -1
39 95 -1
39 99 -1
39 100 1
40 41 1
40 43 -1
40 44 1
40 45 1
40 46 1
40 47 1
40 51 -1
40 52 1
40 53 1
40 54 -1
40 57 1
40 58 1
40 60 -1
40 61 -1
40 67 -1
40 70 1
40 71 1
40 72 -1
40 73 1
40 74 -1
40 76 1
40 77 -1
40 78 -1
40 80 1
40 81 1
40 82 -1
40 84 -1
40 85 1
40 86 1
40 87 1
40 89 1
40 95 -1
40 98 1
40 100 -1
41 42 -1
41 43 1
41 44 -1
41 45 -1
41 46 -1
41 48 -1
41 49 -1
41 51 1
41 53 1
41 54 1
41 56 -1
41 57 1
41 58 -1
41 60 1
41 64 -1
41 65 1
41 67 1
41 73 1
41 75 -1
41 76 -1
41 79 -1
41 80 1
41 82 1
41 83 1
41 86 -1
41 87 -1
41 88 1
41 89 -1
41 90 -1
41 92 1
41 95 -1
41 98 -1
41 99 -1
42 43 -1
42 44 -1
42 47 1
42 49 1
42 50 1
42 51 -1
42 54 -1
42 55 1
42 56 1
42 57 1
42 60 1
42 62 -1
42 64 1
42 67 1
42 68 -1
42 69 -1
42 70 1
42 71 -1
42 72 1
42 74 -1
42 77 -1
42 83 1
42 85 1
42 87 -1
42 88 1
42 89 -1
42 92 -1
42 93 1
42 94 -1
42 97 -1
42 99 1
42 100 1
43 45 1
43 47 1
43 49 -1
43 50 -1
43 52 1
43 54 -1
43 56 -1
43 57 -1
43 58 -1
43 59 -1
43 60 -1
43 64 -1
43 68 -1
43 71 -1
43 74 1
43 76 1
43 77 1
43 79 1
43 81 1
43 82 -1
43 84 1
43 85 1
43 87 -1
43 88 -1
43 89 1
43 91 -1
43 96 -1
43 97 -1
44 45 1
44 51 1
44 53 -1
44 58 -1
44 61 -1
44 65 -1
44 67 -1
44 69 1
44 70 -1
44 72 1
44 75 -1
44 76 -1
44 77 1
44 78 -1
44 79 1
44 80 -1
44 84 -1
44 87 1
44 88 -1
44 90 1
44 94 -1
45 46 1
45 48 -1
45 49 1
45 50 -1
45 54 1
45 55 1
45 58 -1
45 60 -1
45 61 -1
45 62 -1
45 63 1
45 65 1
45 66 -1
45 67 -1
45 69 -1
45 71 1
45 76 -1
45 77 -1
45 80 -1
45 81 -1
45 82 -1
45 84 1
45 87 -1
45 88 -1
45 91 -1
45 93 1
45 95 1
45 97 -1
45 100 1
46 47 -1
46 48 -1
46 49 -1
46 51 -1
46 52 1
46 53 1
46 54 1
46 55 1
46 59 -1
46 60 -1
46 61 1
46 62 1
46 63 -1
46 64 1
46 65 -1
46 67 -1
46 69 -1
46 70 1
46 71 -1
46 74 -1
46 76 -1
46 77 -1
46 83 -1
46 84 1
46 85 1
46 86 1
46 87 -1
46 88 1
46 90 1
46 91 -1
46 92 -1
46 93 1
46 95 1
46 99 -1
47 48 1
47 51 1
47 52 1
47 53 1
47 55 -1
47 57 1
47 58 -1
47 61 -1
47 63 1
47 68 -1
47 69 1
47 70 1
47 71 1
47 72 -1
47 76 1
47 80 -1
47 82 -1
47 84 1
47 86 1
47 90 -1
47 92 -1
47 94 -1
47 96 -1
47 100 1
48 50 -1
48 51 1
48 52 1
48 54 1
48 59 -1
48 65 1
48 67 1
48 69 -1
48 72 1
48 73 -1
48 75 1
48 78 1
48 82 -1
48 84 1
48 87 -1
48 89 -1
48 93 -1
48 94 1
48 97 -1
48 98 -1
48 100 -1
49 50 1
49 51 1
49 53 -1
49 54 -1
49 55 -1
49 56 -1
49 58 -1
49 61 1
49 65 1
49 66 -1
49 67 1
49 68 1
49 71 -1
49 72 1
49 75 -1
49 77 1
49 78 1
49 80 -1
49 82 -1
49 84 1
49 85 1
49 88 -1
49 89 1
49 93 -1
49 94 1
49 96 -1
49 99 1
49 100 1
50 51 1
50 53 -1
50 54 1
50 57 1
50 59 1
50 60 -1
50 63 1
50 64 1
50 65 1
50 66 1
50 70 1
50 72 -1
50 73 -1
50 74 -1
50 75 1
50 76 1
50 78 1
50 79 -1
50 81 1
50 82 1
50 85 -1
50 86 1
50 88 1
50 89 1
50 90 -1
50 94 -1
50 95 1
50 96 -1
51 53 -1
51 56 1
51 58 -1
51 61 1
51 62 -1
51 63 -1
51 64 -1
51 65 -1
51 66 1
51 67 -1
51 70 -1
51 72 1
51 74 1
51 77 1
51 78 1
51 80 -1
51 81 1
51 82 1
51 84 -1
51 85 -1
51 87 -1
51 88 -1
51 89 1
51 90 1
51 93 -1
51 98 1
51 100 -1
52 53 -1
52 54 -1
52 55 1
52 57 -1
52 58 1
52 63 1
52 64 1
52 69 1
52 70 -1
52 73 1
52 74 1
52 76 1
52 77 1
52 78 1
52 79 1
52 81 1
52 82 1
52 86 -1
52 88 -1
52 91 -1
52 94 1
52 96 -1
52 97 -1
52 98 -1
52 99 -1
52 100 1
53 57 -1
53 58 -1
53 59 -1
53 61 -1
53 63 1
53 65 -1
53 68 1
53 69 1
53 72 -1
53 73 -1
53 75 -1
53 77 -1
53 80 1
53 82 -1
53 84 -1
53 87 -1
53 88 1
53 90 -1
53 91 1
53 92 -1
53 94 -1
53 95 1
53 97 -1
54 55 1
54 60 1
54 63 1
54 64 -1
54 65 1
54 66 1
54 67 1
54 68 -1
54 70 1
54 71 -1
54 73 1
54 77 1
54 78 -1
54 79 1
54 81 1
54 82 -1
54 83 -1
54 84 1
54 86 -1
54 87 1
54 92 -1
54 94 -1
54 97 -1
54 100 -1
55 56 -1
55 57 1
55 58 -1
55 61 -1
55 62 1
55 63 1
55 64 -1
55 65 1
55 72 1
55 74 -1
55 77 -1
55 78 -1
55 80 1
55 81 -1
55 82 1
55 83 -1
55 84 -1
55 86 -1
55 89 -1
55 91 -1
55 92 1
55 93 -1
55 94 -1
55 96 1
55 100 -1
56 57 -1
56 58 1
56 59 1
56 65 -1
56 66 -1
56 67 -1
56 68 1
56 70 1
56 72 -1
56 74 1
56 75 -1
56 76 -1
56 78 1
56 80 -1
56 81 -1
56 83 -1
56 84 -1
56 85 -1
56 87 -1
56 89 1
56 90 -1
56 91 1
56 92 -1
56 93 -1
56 95 -1
56 97 -1
56 98 1
56 100 -1
57 59 1
57 60 1
57 62 1
57 64 -1
57 65 1
57 67 1
57 69 1
57 72 -1
57 73 1
57 76 1
57 79 -1
57 80 -1
57 83 1
57 86 -1
57 88 1
57 89 1
57 91 -1
57 93 -1
57 94 1
57 95 1
57 96 -1
57 98 -1
58 66 -1
58 67 1
58 68 1
58 69 1
58 71 -1
58 72 1
58 76 -1
58 77 -1
58 80 1
58 81 -1
58 82 1
58 83 -1
58 85 -1
58 87 -1
58 89 1
58 93 -1
58 94 1
58 95 1
58 96 -1
58 98 1
59 60 1
59 61 -1
59 65 -1
59 66 -1
59 71 1
59 72 -1
59 73 -1
59 74 1
59 75 -1
59 81 -1
59 82 -1
59 84 1
59 86 -1
59 87 1
59 89 1
59 91 -1
59 92 -1
59 93 1
59 95 -1
59 98 1
60 62 -1
60 66 1
60 68 -1
60 70 1
60 71 -1
60 72 -1
60 75 -1
60 76 1
60 77 -1
60 82 -1
60 84 -1
60 85 1
60 86 1
60 88 -1
60 91 1
60 94 1
60 99 1
60 100 1
61 63 1
61 65 1
61 66 1
61 67 -1
61 68 -1
61 70 -1
61 72 1
61 73 -1
61 74 -1
61 77 -1
61 78 1
61 79 -1
61 82 -1
61 83 -1
61 88 -1
61 91 -1
61 94 -1
61 97 -1
61 99 1
61 100 1
62 63 1
62 65 1
62 69 1
62 70 1
62 72 -1
62 75 -1
62 78 1
62 83 1
62 84 -1
62 86 1
62 87 -1
62 89 1
62 92 -1
62 93 -1
62 94 1
62 95 1
62 97 1
62 100 -1
63 65 -1
63 71 1
63 73 1
63 78 1
63 79 -1
63 80 -1
63 82 1
63 83 1
63 86 1
63 89 -1
63 94 1
63 96 1
63 98 1
63 99 1
64 68 -1
64 70 1
64 72 -1
64 73 -1
64 74 1
64 79 1
64 80 -1
64 82 1
64 85 -1
64 87 1
64 89 -1
64 93 -1
64 94 -1
64 96 -1
64 99 1
64 100 -1
65 68 1
65 69 -1
65 72 1
65 73 -1
65 75 1
65 76 -1
65 77 1
65 78 -1
65 81 -1
65 82 1
65 83 1
65 85 1
65 87 1
65 88 1
65 90 -1
65 91 -1
65 92 -1
65 94 -1
65 95 -1
65 99 -1
65 100 1
66 68 -1
66 70 1
66 73 1
66 75 -1
66 80 -1
66 82 -1
66 87 -1
66 90 -1
66 91 1
66 92 -1
66 93 1
66 98 -1
67 68 -1
67 69 1
67 72 -1
67 77 1
67 78 1
67 81 -1
67 84 -1
67 87 -1
67 89 -1
67 92 -1
67 93 1
67 94 -1
67 97 1
67 98 1
67 100 1
68 70 -1
68 71 -1
68 72 -1
68 74 -1
68 76 1
68 77 1
68 78 1
68 80 -1
68 81 -1
68 85 1
68 88 -1
68 89 1
68 90 1
68 92 -1
68 93 -1
68 94 -1
68 96 1
68 98 1
69 70 1
69 72 1
69 75 1
69 76 1
69 77 -1
69 80 1
69 83 1
69 85 -1
69 86 1
69 87 1
69 91 1
69 95 1
69 97 -1
69 99 -1
69 100 1
70 71 1
70 73 1
70 74 1
70 75 -1
70 77 -1
70 78 1
70 79 1
70 81 -1
70 82 -1
70 83 1
70 86 1
70 87 1
70 88 1
70 90 1
70 91 -1
70 92 1
70 95 1
70 96 -1
70 97 -1
70 99 1
71 76 -1
71 79 -1
71 80 1
71 83 -1
71 84 -1
71 89 1
71 90 1
71 91 -1
71 94 1
71 97 -1
71 99 1
71 100 1
72 73 -1
72 74 -1
72 76 1
72 82 -1
72 83 1
72 85 -1
72 88 -1
72 90 1
72 91 1
72 92 -1
72 95 1
72 96 -1
72 97 1
72 100 -1
73 75 -1
73 76 -1
73 79 1
73 80 1
73 82 -1
73 85 1
73 86 -1
73 87 -1
73 88 -1
73 89 1
73 90 1
73 92 1
73 93 1
73 94 -1
73 97 1
73 98 -1
73 99 1
74 76 -1
74 77 1
74 79 -1
74 80 -1
74 81 1
74 85 1
74 87 1
74 89 -1
74 90 -1
74 91 1
74 93 -1
74 97 1
74 99 1
75 76 1
75 77 -1
75 78 -1
75 80 -1
75 81 -1
75 84 -1
75 85 1
75 86 -1
75 87 -1
75 88 -1
75 92 -1
75 93 -1
75 95 1
75 98 1
76 78 -1
76 81 1
76 83 1
76 84 -1
76 85 -1
76 91 1
76 92 1
76 94 1
76 96 -1
76 99 1
77 81 -1
77 84 1
77 85 1
77 88 1
77 89 1
77 90 1
77 94 1
77 98 -1
77 99 -1
77 100 1
78 86 -1
78 91 1
78 92 -1
78 94 -1
78 98 -1
78 100 -1
79 81 1
79 83 -1
79 87 -1
79 88 1
79 90 -1
79 92 1
79 93 1
79 94 1
79 95 -1
79 98 -1
80 81 1
80 85 1
80 86 -1
80 90 1
80 92 1
80 96 1
80 97 -1
80 98 -1
80 99 -1
81 84 -1
81 88 1
81 89 -1
81 92 -1
81 95 1
81 96 1
81 98 -1
81 99 1
82 83 1
82 85 1
82 87 -1
82 88 1
82 90 -1
82 93 -1
82 97 1
82 99 -1
83 84 -1
83 91 -1
83 92 -1
83 93 -1
83 95 1
83 96 -1
83 97 -1
83 98 1
83 99 1
83 100 -1
84 86 -1
84 88 1
84 90 -1
84 95 -1
84 97 -1
84 98 1
84 99 1
84 100 1
85 87 -1
85 92 -1
85 93 -1
85 94 1
85 95 1
85 96 1
85 97 -1
85 98 -1
85 100 1
86 88 1
86 90 -1
86 93 1
86 94 -1
86 99 1
87 88 -1
87 89 1
87 95 1
87 96 1
87 98 -1
87 100 1
88 90 -1
88 92 1
88 96 -1
88 97 1
88 98 -1
88 99 -1
88 100 1
89 90 -1
89 94 1
89 96 1
89 97 -1
89 98 1
89 99 -1
90 93 1
90 95 -1
90 96 1
90 100 1
91 92 1
91 93 -1
91 94 1
91 95 -1
91 97 -1
92 93 -1
92 95 1
92 97 -1
93 94 1
93 96 -1
93 97 1
93 98 -1
93 99 -1
94 96 1
94 99 -1
94 100 -1
95 97 -1
95 99 -1
95 100 -1
96 97 -1
96 100 1
97 98 -1
97 99 1
